\ Model Routes
\ LP format - for model browsing. Use MPS format to capture full model detail.
Maximize
  - 191.7153353028244 R{0,0} + 623.2046552982704 R{0,1}
   + 623.2046552982704 R{0,2} - 249.2301939667805 R{0,3}
   + 222.8649545650627 R{0,4} + 892.5014194710873 R{0,5}
   + 1698.233900257394 R{0,6} + 2126.760451688004 R{0,7}
   + 368.3846205900942 R{0,8} + 2001.786617338837 R{0,9}
   + 2475.90188432286 R{0,10} + 1676.589175259411 R{0,11}
   + 1794.377543048211 R{0,12} + 1065.022513692777 R{0,13}
   + 1941.57596965121 R{0,14} + 2475.90188432286 R{0,15}
   + 1948.874667585028 R{0,16} + 1097.362144160855 R{0,17}
   + 2475.90188432286 R{0,18} + 798.7420236467376 R{0,19}
   + 1655.266318529611 R{0,20} + 1738.228454335865 R{0,21}
   + 1824.796141004728 R{0,22} - 256.140831891889 R{1,0}
   + 216.3226429839851 R{1,1} + 843.8103196491563 R{1,2}
   + 541.9724420902087 R{1,3} + 959.2955009207458 R{1,4}
   + 784.4818829810654 R{1,5} + 621.1133653302618 R{1,6}
   + 565.3673827301163 R{1,7} + 898.8111463166795 R{1,8}
   + 177.1312384668028 R{1,9} + 1263.714750457071 R{1,10}
   + 205.5716616200003 R{1,11} + 510.6794794597216 R{1,12}
   + 267.5221344797898 R{1,13} + 29.13376112732078 R{1,14}
   + 124.1207291318658 R{1,15} + 142.3596466432307 R{1,16}
   + 404.6434169656496 R{1,17} + 829.3148863896304 R{1,18}
   + 16.12415781915203 R{1,19} + 1198.881248318718 R{2,0}
   + 1198.881248318718 R{2,1} - 278.4443928850388 R{2,2}
   - 59.13410337035452 R{2,3} + 602.7748664658451 R{2,4}
   + 1100.505917706273 R{2,5} + 448.0612590630647 R{2,6}
   + 838.1281267964846 R{2,7} + 403.9434893513053 R{2,8}
   + 36.92082797562006 R{2,9} + 391.5793263761841 R{2,10}
   + 545.8218696722909 R{2,11} + 245.0354612688821 R{2,12}
   + 1564.186982877541 R{2,13} + 776.9861073682271 R{2,14}
   + 743.9793097738379 R{2,15} + 674.009124802037 R{2,16}
   + 181.841811344998 R{2,17} + 188.8677732867749 R{2,18}
   + 725.2351538442874 R{2,19} + 554.6292306643583 R{2,20}
   + 367.3268243107262 R{2,21} + 1093.223921153255 R{2,22}
   - 260.2482995389823 R{3,0} + 459.0257104485919 R{3,1}
   + 838.3862215394925 R{3,2} + 1067.967862746227 R{3,3}
   + 580.1545717332175 R{3,4} + 768.8491195486179 R{3,5}
   + 402.1384784616362 R{3,6} + 466.213106440441 R{3,7}
   + 960.0096550362455 R{3,8} + 754.8151001202068 R{3,9}
   + 719.4597989256395 R{3,10} + 406.1296014523433 R{3,11}
   + 413.0332724838478 R{3,12} + 443.0216652739177 R{3,13}
   + 214.4043536425824 R{3,14} + 181.3091717073085 R{3,15}
   + 657.4259214916597 R{3,16} + 405.191809746285 R{3,17}
   + 118.640363374181 R{3,18} + 7.469529744848046 R{3,19}
   + 754.8151001202068 R{3,20} + 143.04936849733 R{3,21}
   + 556.8785615761328 R{3,22} + 321.188080511193 R{3,23}
   + 893.3759918577643 R{3,24} - 242.5208875955131 R{4,0}
   + 1066.379443184683 R{4,1} + 1576.196574514046 R{4,2}
   + 2338.861763297874 R{4,3} + 1438.32217442406 R{4,4}
   + 1425.901966884533 R{4,5} + 1066.812638585514 R{4,6}
   + 985.2461664403786 R{4,7} + 1516.546172482261 R{4,8}
   + 1307.764016027376 R{4,9} + 1317.839372935921 R{4,10}
   + 897.8650579335495 R{4,11} + 1317.839372935921 R{4,12}
   + 1379.799068181429 R{4,13} + 1077.558031811786 R{4,14}
   + 1731.961517313826 R{4,15} + 1778.546122076132 R{4,16}
   + 1916.956318985923 R{4,17} + 1595.669234767642 R{4,18}
   + 2119.25395720584 R{4,19} + 772.5499646325056 R{4,20}
   + 953.4674424311715 R{4,21} + 458.9977527027904 R{4,22}
   + 1318.237780702686 R{4,23} + 1580.787495197369 R{4,24}
   + 1012.537330393388 R{4,25} + 811.2427725371359 R{4,26}
   + 1948.139305753423 R{4,27} - 231.9775664337766 R{5,0}
   + 166.8396544238635 R{5,1} + 729.4065638506388 R{5,2}
   + 671.7307948338649 R{5,3} + 402.6776551787916 R{5,4}
   + 1134.957614797394 R{5,5} + 294.0851077784704 R{5,6}
   + 606.1970381976596 R{5,7} + 329.2483512665519 R{5,8}
   + 842.9707944329703 R{5,9} + 911.832748523268 R{5,10}
   + 447.1099735113152 R{5,11} + 371.0283692029681 R{5,12}
   + 356.6872201137828 R{5,13} + 859.4294830405065 R{5,14}
   + 300.2737507890333 R{5,15} + 141.843362771115 R{5,16}
   - 231.1436095783099 R{6,0} + 1370.402709432251 R{6,1}
   + 2203.660382897198 R{6,2} + 2548.258740052186 R{6,3}
   + 3307.356576559611 R{6,4} + 1135.052373383262 R{6,5}
   + 2346.791187285819 R{6,6} + 2570.907725342996 R{6,7}
   + 1317.341710304947 R{6,8} + 2448.70156406977 R{6,9}
   + 2120.116571193507 R{6,10} + 2726.009471341377 R{6,11}
   + 2368.861004500032 R{6,12} + 1979.356517859157 R{6,13}
   + 1668.885343457805 R{6,14} + 1785.028046845357 R{6,15}
   + 3029.162937174953 R{6,16} + 1926.896819751998 R{6,17}
   + 1829.474197995437 R{6,18} + 1979.78370643337 R{6,19}
   + 1760.091054893644 R{6,20} + 2985.387084389419 R{6,21}
   + 1762.371011145636 R{6,22} + 1247.557166082694 R{6,23}
   + 1818.39606217141 R{6,24} + 1415.405070776303 R{6,25}
   + 1333.15960935058 R{6,26} + 2198.116247900823 R{6,27}
   + 975.5076338908893 R{6,28} + 2314.353947604943 R{6,29}
   + 1837.706699501699 R{6,30} + 2360.420231323702 R{6,31}
   + 1420.19484767437 R{6,32} + 2034.92879426804 R{6,33}
Subject To
 R00: R{0,0} <= 1
 R01: R{0,1} <= 1
 R02: R{0,2} <= 1
 R03: R{0,3} <= 1
 R04: R{0,4} <= 1
 R05: R{0,5} <= 1
 R06: R{0,6} <= 1
 R07: R{0,7} <= 1
 R08: R{0,8} <= 1
 R09: R{0,9} <= 1
 R010: R{0,10} <= 1
 R011: R{0,11} <= 1
 R012: R{0,12} <= 1
 R013: R{0,13} <= 1
 R014: R{0,14} <= 1
 R015: R{0,15} <= 1
 R016: R{0,16} <= 1
 R017: R{0,17} <= 1
 R018: R{0,18} <= 1
 R019: R{0,19} <= 1
 R020: R{0,20} <= 1
 R021: R{0,21} <= 1
 R022: R{0,22} <= 1
 R023: R{1,0} <= 1
 R024: R{1,1} <= 1
 R025: R{1,2} <= 1
 R026: R{1,3} <= 1
 R027: R{1,4} <= 1
 R028: R{1,5} <= 1
 R029: R{1,6} <= 1
 R030: R{1,7} <= 1
 R031: R{1,8} <= 1
 R032: R{1,9} <= 1
 R033: R{1,10} <= 1
 R034: R{1,11} <= 1
 R035: R{1,12} <= 1
 R036: R{1,13} <= 1
 R037: R{1,14} <= 1
 R038: R{1,15} <= 1
 R039: R{1,16} <= 1
 R040: R{1,17} <= 1
 R041: R{1,18} <= 1
 R042: R{1,19} <= 1
 R043: R{2,0} <= 1
 R044: R{2,1} <= 1
 R045: R{2,2} <= 1
 R046: R{2,3} <= 1
 R047: R{2,4} <= 1
 R048: R{2,5} <= 1
 R049: R{2,6} <= 1
 R050: R{2,7} <= 1
 R051: R{2,8} <= 1
 R052: R{2,9} <= 1
 R053: R{2,10} <= 1
 R054: R{2,11} <= 1
 R055: R{2,12} <= 1
 R056: R{2,13} <= 1
 R057: R{2,14} <= 1
 R058: R{2,15} <= 1
 R059: R{2,16} <= 1
 R060: R{2,17} <= 1
 R061: R{2,18} <= 1
 R062: R{2,19} <= 1
 R063: R{2,20} <= 1
 R064: R{2,21} <= 1
 R065: R{2,22} <= 1
 R066: R{3,0} <= 1
 R067: R{3,1} <= 1
 R068: R{3,2} <= 1
 R069: R{3,3} <= 1
 R070: R{3,4} <= 1
 R071: R{3,5} <= 1
 R072: R{3,6} <= 1
 R073: R{3,7} <= 1
 R074: R{3,8} <= 1
 R075: R{3,9} <= 1
 R076: R{3,10} <= 1
 R077: R{3,11} <= 1
 R078: R{3,12} <= 1
 R079: R{3,13} <= 1
 R080: R{3,14} <= 1
 R081: R{3,15} <= 1
 R082: R{3,16} <= 1
 R083: R{3,17} <= 1
 R084: R{3,18} <= 1
 R085: R{3,19} <= 1
 R086: R{3,20} <= 1
 R087: R{3,21} <= 1
 R088: R{3,22} <= 1
 R089: R{3,23} <= 1
 R090: R{3,24} <= 1
 R091: R{4,0} <= 1
 R092: R{4,1} <= 1
 R093: R{4,2} <= 1
 R094: R{4,3} <= 1
 R095: R{4,4} <= 1
 R096: R{4,5} <= 1
 R097: R{4,6} <= 1
 R098: R{4,7} <= 1
 R099: R{4,8} <= 1
 R0100: R{4,9} <= 1
 R0101: R{4,10} <= 1
 R0102: R{4,11} <= 1
 R0103: R{4,12} <= 1
 R0104: R{4,13} <= 1
 R0105: R{4,14} <= 1
 R0106: R{4,15} <= 1
 R0107: R{4,16} <= 1
 R0108: R{4,17} <= 1
 R0109: R{4,18} <= 1
 R0110: R{4,19} <= 1
 R0111: R{4,20} <= 1
 R0112: R{4,21} <= 1
 R0113: R{4,22} <= 1
 R0114: R{4,23} <= 1
 R0115: R{4,24} <= 1
 R0116: R{4,25} <= 1
 R0117: R{4,26} <= 1
 R0118: R{4,27} <= 1
 R0119: R{5,0} <= 1
 R0120: R{5,1} <= 1
 R0121: R{5,2} <= 1
 R0122: R{5,3} <= 1
 R0123: R{5,4} <= 1
 R0124: R{5,5} <= 1
 R0125: R{5,6} <= 1
 R0126: R{5,7} <= 1
 R0127: R{5,8} <= 1
 R0128: R{5,9} <= 1
 R0129: R{5,10} <= 1
 R0130: R{5,11} <= 1
 R0131: R{5,12} <= 1
 R0132: R{5,13} <= 1
 R0133: R{5,14} <= 1
 R0134: R{5,15} <= 1
 R0135: R{5,16} <= 1
 R0136: R{6,0} <= 1
 R0137: R{6,1} <= 1
 R0138: R{6,2} <= 1
 R0139: R{6,3} <= 1
 R0140: R{6,4} <= 1
 R0141: R{6,5} <= 1
 R0142: R{6,6} <= 1
 R0143: R{6,7} <= 1
 R0144: R{6,8} <= 1
 R0145: R{6,9} <= 1
 R0146: R{6,10} <= 1
 R0147: R{6,11} <= 1
 R0148: R{6,12} <= 1
 R0149: R{6,13} <= 1
 R0150: R{6,14} <= 1
 R0151: R{6,15} <= 1
 R0152: R{6,16} <= 1
 R0153: R{6,17} <= 1
 R0154: R{6,18} <= 1
 R0155: R{6,19} <= 1
 R0156: R{6,20} <= 1
 R0157: R{6,21} <= 1
 R0158: R{6,22} <= 1
 R0159: R{6,23} <= 1
 R0160: R{6,24} <= 1
 R0161: R{6,25} <= 1
 R0162: R{6,26} <= 1
 R0163: R{6,27} <= 1
 R0164: R{6,28} <= 1
 R0165: R{6,29} <= 1
 R0166: R{6,30} <= 1
 R0167: R{6,31} <= 1
 R0168: R{6,32} <= 1
 R0169: R{6,33} <= 1
 R1_0: R{0,0} + R{0,1} + R{0,2} + R{0,3} + R{0,4} + R{0,5} + R{0,6}
   + R{0,7} + R{0,8} + R{0,9} + R{0,10} + R{0,11} + R{0,12} + R{0,13}
   + R{0,14} + R{0,15} + R{0,16} + R{0,17} + R{0,18} + R{0,19} + R{0,20}
   + R{0,21} + R{0,22} <= 1
 R1_1: R{1,0} + R{1,1} + R{1,2} + R{1,3} + R{1,4} + R{1,5} + R{1,6}
   + R{1,7} + R{1,8} + R{1,9} + R{1,10} + R{1,11} + R{1,12} + R{1,13}
   + R{1,14} + R{1,15} + R{1,16} + R{1,17} + R{1,18} + R{1,19} <= 1
 R1_2: R{2,0} + R{2,1} + R{2,2} + R{2,3} + R{2,4} + R{2,5} + R{2,6}
   + R{2,7} + R{2,8} + R{2,9} + R{2,10} + R{2,11} + R{2,12} + R{2,13}
   + R{2,14} + R{2,15} + R{2,16} + R{2,17} + R{2,18} + R{2,19} + R{2,20}
   + R{2,21} + R{2,22} <= 1
 R1_3: R{3,0} + R{3,1} + R{3,2} + R{3,3} + R{3,4} + R{3,5} + R{3,6}
   + R{3,7} + R{3,8} + R{3,9} + R{3,10} + R{3,11} + R{3,12} + R{3,13}
   + R{3,14} + R{3,15} + R{3,16} + R{3,17} + R{3,18} + R{3,19} + R{3,20}
   + R{3,21} + R{3,22} + R{3,23} + R{3,24} <= 1
 R1_4: R{4,0} + R{4,1} + R{4,2} + R{4,3} + R{4,4} + R{4,5} + R{4,6}
   + R{4,7} + R{4,8} + R{4,9} + R{4,10} + R{4,11} + R{4,12} + R{4,13}
   + R{4,14} + R{4,15} + R{4,16} + R{4,17} + R{4,18} + R{4,19} + R{4,20}
   + R{4,21} + R{4,22} + R{4,23} + R{4,24} + R{4,25} + R{4,26} + R{4,27}
   <= 1
 R1_5: R{5,0} + R{5,1} + R{5,2} + R{5,3} + R{5,4} + R{5,5} + R{5,6}
   + R{5,7} + R{5,8} + R{5,9} + R{5,10} + R{5,11} + R{5,12} + R{5,13}
   + R{5,14} + R{5,15} + R{5,16} <= 1
 R1_6: R{6,0} + R{6,1} + R{6,2} + R{6,3} + R{6,4} + R{6,5} + R{6,6}
   + R{6,7} + R{6,8} + R{6,9} + R{6,10} + R{6,11} + R{6,12} + R{6,13}
   + R{6,14} + R{6,15} + R{6,16} + R{6,17} + R{6,18} + R{6,19} + R{6,20}
   + R{6,21} + R{6,22} + R{6,23} + R{6,24} + R{6,25} + R{6,26} + R{6,27}
   + R{6,28} + R{6,29} + R{6,30} + R{6,31} + R{6,32} + R{6,33} <= 1
 R2_0: 7 R{0,7} + 7 R{0,9} + 7 R{0,10} + 7 R{0,11} + 7 R{0,12} + 7 R{0,14}
   + 7 R{0,15} + 7 R{0,16} + 7 R{0,17} + 7 R{0,18} + 7 R{0,20} + 7 R{0,21}
   + 7 R{0,22} + 7 R{2,13} + 7 R{2,14} + 7 R{6,26} + 7 R{6,28} <= 7
 R2_1: 10 R{2,18} + 10 R{3,1} + 10 R{3,2} + 10 R{3,3} + 10 R{3,4}
   + 10 R{3,5} + 10 R{3,7} + 10 R{3,9} + 10 R{3,14} + 10 R{3,16}
   + 10 R{3,17} + 10 R{3,20} + 10 R{3,22} + 10 R{3,24} + 10 R{4,16}
   + 10 R{5,7} + 10 R{5,10} + 10 R{6,10} + 10 R{6,12} + 10 R{6,13}
   + 10 R{6,14} + 10 R{6,15} + 10 R{6,16} + 10 R{6,18} + 10 R{6,24}
   + 10 R{6,30} <= 10
 R2_2: <= 0
 R2_3: 4 R{0,19} + 4 R{0,21} + 4 R{1,4} + 4 R{1,6} + 4 R{1,9} + 4 R{1,15}
   + 4 R{2,6} + 4 R{2,9} + 4 R{5,1} + 4 R{5,2} + 4 R{5,6} + 4 R{5,16} <= 4
 R2_4: <= 0
 R2_5: 5 R{5,1} + 5 R{5,2} + 5 R{5,16} <= 5
 R2_6: 10 R{0,12} + 10 R{0,14} + 10 R{0,16} + 10 R{0,20} + 10 R{1,1}
   + 10 R{1,2} + 10 R{1,3} + 10 R{1,8} + 10 R{1,12} + 10 R{1,13}
   + 10 R{1,17} + 10 R{2,12} + 10 R{5,5} <= 10
 R2_7: 6 R{1,1} + 6 R{1,12} + 6 R{1,13} + 6 R{1,17} <= 6
 R2_8: <= 0
 R2_9: 12 R{0,13} + 12 R{4,1} + 12 R{4,2} + 12 R{4,3} + 12 R{4,4}
   + 12 R{4,5} + 12 R{4,6} + 12 R{4,7} + 12 R{4,8} + 12 R{4,9} + 12 R{4,10}
   + 12 R{4,11} + 12 R{4,12} + 12 R{4,14} + 12 R{4,15} + 12 R{4,16}
   + 12 R{4,17} + 12 R{4,18} + 12 R{4,20} + 12 R{4,21} + 12 R{4,22}
   + 12 R{4,23} + 12 R{4,24} + 12 R{4,25} + 12 R{4,27} + 12 R{6,33} <= 12
 R2_10: 8 R{6,1} + 8 R{6,2} + 8 R{6,4} + 8 R{6,6} + 8 R{6,7} + 8 R{6,9}
   + 8 R{6,11} + 8 R{6,16} + 8 R{6,21} + 8 R{6,22} + 8 R{6,25} + 8 R{6,27}
   + 8 R{6,29} + 8 R{6,31} + 8 R{6,32} + 8 R{6,33} <= 8
 R2_11: 15 R{0,8} + 15 R{1,19} + 15 R{2,21} + 15 R{6,7} + 15 R{6,19}
   + 15 R{6,26} + 15 R{6,28} <= 15
 R2_12: <= 0
 R2_13: <= 0
 R2_14: <= 0
 R2_15: 11 R{0,0} + 11 R{0,1} + 11 R{0,2} + 11 R{4,1} + 11 R{4,2}
   + 11 R{4,8} + 11 R{4,9} + 11 R{4,11} + 11 R{4,15} + 11 R{4,23}
   + 11 R{4,24} <= 11
 R2_16: 5 R{0,6} + 5 R{0,13} + 5 R{2,20} + 5 R{6,4} + 5 R{6,9} + 5 R{6,11}
   + 5 R{6,16} + 5 R{6,21} + 5 R{6,29} + 5 R{6,31} + 5 R{6,33} <= 5
 R2_17: 11 R{0,20} + 11 R{3,18} + 11 R{4,24} + 11 R{6,26} + 11 R{6,28}
   + 11 R{6,29} <= 11
 R2_18: 5 R{0,22} + 5 R{1,7} + 5 R{1,15} + 5 R{2,14} + 5 R{2,15}
   + 5 R{2,22} + 5 R{3,17} + 5 R{3,23} + 5 R{4,25} + 5 R{5,15} <= 5
 R2_19: 11 R{1,4} + 11 R{1,6} + 11 R{1,7} + 11 R{2,6} + 11 R{2,10}
   + 11 R{4,1} + 11 R{4,2} + 11 R{4,3} + 11 R{4,4} + 11 R{4,8} + 11 R{4,15}
   + 11 R{4,17} + 11 R{4,19} + 11 R{4,23} + 11 R{4,24} + 11 R{4,27} <= 11
 R2_20: 13 R{0,10} + 13 R{0,15} + 13 R{0,16} + 13 R{0,18} + 13 R{2,5}
   + 13 R{5,9} + 13 R{5,13} + 13 R{6,1} + 13 R{6,2} + 13 R{6,3} + 13 R{6,4}
   + 13 R{6,6} + 13 R{6,7} + 13 R{6,16} + 13 R{6,17} + 13 R{6,20}
   + 13 R{6,21} + 13 R{6,22} + 13 R{6,25} + 13 R{6,27} + 13 R{6,29}
   + 13 R{6,31} <= 13
 R2_21: <= 0
 R2_22: 10 R{0,7} + 10 R{0,9} + 10 R{0,10} + 10 R{0,11} + 10 R{0,12}
   + 10 R{0,14} + 10 R{0,15} + 10 R{0,16} + 10 R{0,17} + 10 R{0,18}
   + 10 R{0,19} + 10 R{0,22} + 10 R{2,13} + 10 R{2,22} + 10 R{4,8}
   + 10 R{4,14} + 10 R{4,15} + 10 R{4,23} + 10 R{4,26} + 10 R{6,15}
   + 10 R{6,23} <= 10
 R2_23: 14 R{0,1} + 14 R{0,2} + 14 R{0,6} + 14 R{1,11} + 14 R{2,0}
   + 14 R{2,1} + 14 R{4,7} + 14 R{4,10} + 14 R{4,12} + 14 R{6,2}
   + 14 R{6,3} + 14 R{6,4} + 14 R{6,12} + 14 R{6,16} + 14 R{6,21}
   + 14 R{6,22} + 14 R{6,29} + 14 R{6,31} <= 14
 R2_24: 10 R{0,7} + 10 R{0,9} + 10 R{0,10} + 10 R{0,11} + 10 R{0,12}
   + 10 R{0,15} + 10 R{0,18} + 10 R{1,5} + 10 R{1,10} + 10 R{1,12}
   + 10 R{2,13} + 10 R{3,1} + 10 R{3,2} + 10 R{3,3} + 10 R{3,5} + 10 R{3,6}
   + 10 R{3,8} + 10 R{3,9} + 10 R{3,13} + 10 R{3,16} + 10 R{3,19}
   + 10 R{3,20} + 10 R{3,22} + 10 R{3,24} + 10 R{4,9} + 10 R{4,18}
   + 10 R{5,3} + 10 R{5,6} + 10 R{5,8} + 10 R{6,14} + 10 R{6,24} <= 10
 R2_25: 13 R{0,7} + 13 R{0,9} + 13 R{0,10} + 13 R{0,11} + 13 R{0,12}
   + 13 R{0,14} + 13 R{0,15} + 13 R{0,16} + 13 R{0,18} + 13 R{0,22}
   + 13 R{2,13} + 13 R{2,14} + 13 R{2,15} + 13 R{2,22} + 13 R{4,1}
   + 13 R{4,2} + 13 R{4,3} + 13 R{4,4} + 13 R{4,5} + 13 R{4,6} + 13 R{4,7}
   + 13 R{4,9} + 13 R{4,10} + 13 R{4,11} + 13 R{4,12} + 13 R{4,13}
   + 13 R{4,16} + 13 R{4,17} + 13 R{4,18} + 13 R{4,19} + 13 R{4,20}
   + 13 R{4,21} + 13 R{4,25} + 13 R{4,27} <= 13
 R2_26: 6 R{0,7} + 6 R{0,9} + 6 R{0,10} + 6 R{0,11} + 6 R{0,15} + 6 R{0,17}
   + 6 R{0,18} + 6 R{0,22} + 6 R{1,10} + 6 R{1,18} + 6 R{5,1} + 6 R{5,2}
   + 6 R{5,3} + 6 R{5,4} + 6 R{5,5} + 6 R{5,6} + 6 R{5,8} + 6 R{5,9}
   + 6 R{5,11} + 6 R{5,12} + 6 R{5,14} + 6 R{6,4} + 6 R{6,9} + 6 R{6,11}
   <= 6
 R2_27: 5 R{0,14} + 5 R{0,16} + 5 R{0,20} + 5 R{0,21} + 5 R{1,3} + 5 R{1,4}
   + 5 R{1,5} + 5 R{3,3} + 5 R{3,4} + 5 R{3,6} + 5 R{3,10} + 5 R{3,16}
   + 5 R{3,24} + 5 R{5,3} + 5 R{5,9} + 5 R{5,12} + 5 R{5,15} + 5 R{6,1}
   + 5 R{6,2} + 5 R{6,3} + 5 R{6,4} + 5 R{6,5} + 5 R{6,8} + 5 R{6,9}
   + 5 R{6,10} + 5 R{6,11} + 5 R{6,12} + 5 R{6,13} + 5 R{6,15} + 5 R{6,16}
   + 5 R{6,17} + 5 R{6,18} + 5 R{6,19} + 5 R{6,20} + 5 R{6,21} + 5 R{6,22}
   + 5 R{6,25} + 5 R{6,29} + 5 R{6,30} + 5 R{6,31} + 5 R{6,33} <= 5
 R2_28: <= 0
 R2_29: <= 0
 R2_30: <= 0
 R2_31: 6 R{1,14} <= 6
 R2_32: 7 R{0,4} + 7 R{0,5} + 7 R{0,7} + 7 R{0,9} + 7 R{0,10} + 7 R{0,11}
   + 7 R{0,12} + 7 R{0,14} + 7 R{0,15} + 7 R{0,16} + 7 R{0,17} + 7 R{0,18}
   + 7 R{0,19} + 7 R{0,20} + 7 R{0,21} + 7 R{0,22} + 7 R{5,11} + 7 R{5,14}
   + 7 R{6,17} <= 7
 R2_33: 12 R{0,21} + 12 R{3,9} + 12 R{3,15} + 12 R{3,20} + 12 R{3,23}
   + 12 R{3,24} + 12 R{5,5} + 12 R{5,10} <= 12
 R2_34: 5 R{0,6} + 5 R{0,7} + 5 R{0,10} + 5 R{0,11} + 5 R{0,12} + 5 R{0,13}
   + 5 R{0,14} + 5 R{0,15} + 5 R{0,16} + 5 R{0,18} + 5 R{0,20} + 5 R{0,21}
   + 5 R{0,22} + 5 R{1,5} + 5 R{1,10} + 5 R{2,13} + 5 R{2,22} + 5 R{3,12}
   + 5 R{6,4} + 5 R{6,10} + 5 R{6,11} + 5 R{6,13} + 5 R{6,14} + 5 R{6,16}
   + 5 R{6,24} + 5 R{6,27} + 5 R{6,29} + 5 R{6,30} + 5 R{6,32} <= 5
 R2_35: 13 R{0,6} + 13 R{5,5} <= 13
 R2_36: <= 0
 R2_37: 5 R{1,9} + 5 R{2,17} + 5 R{3,1} + 5 R{3,2} + 5 R{3,7} + 5 R{3,8}
   + 5 R{3,9} + 5 R{3,13} + 5 R{3,15} + 5 R{3,17} + 5 R{3,20} + 5 R{3,21}
   + 5 R{3,23} + 5 R{5,7} <= 5
 R2_38: <= 0
 R2_39: <= 0
 R2_40: 15 R{0,9} + 15 R{0,19} + 15 R{2,3} + 15 R{2,4} + 15 R{2,5}
   + 15 R{2,6} + 15 R{2,9} + 15 R{2,10} + 15 R{2,12} + 15 R{2,17}
   + 15 R{2,18} + 15 R{5,7} + 15 R{5,13} + 15 R{5,16} <= 15
 R2_41: 5 R{2,7} + 5 R{2,8} + 5 R{2,14} + 5 R{2,15} + 5 R{2,16} + 5 R{3,2}
   + 5 R{3,3} + 5 R{3,5} + 5 R{3,8} + 5 R{3,10} + 5 R{3,11} + 5 R{3,12}
   + 5 R{4,3} + 5 R{4,8} + 5 R{4,10} + 5 R{4,12} + 5 R{4,13} + 5 R{4,15}
   + 5 R{4,16} + 5 R{4,18} + 5 R{6,4} + 5 R{6,6} + 5 R{6,7} + 5 R{6,9}
   + 5 R{6,11} + 5 R{6,13} + 5 R{6,16} + 5 R{6,18} + 5 R{6,20} + 5 R{6,21}
   + 5 R{6,24} + 5 R{6,33} <= 5
 R2_42: 4 R{2,3} + 4 R{2,4} + 4 R{2,5} + 4 R{2,6} + 4 R{2,9} + 4 R{2,12}
   <= 4
 R2_43: <= 0
 R2_44: <= 0
 R2_45: <= 0
 R2_46: 9 R{0,6} + 9 R{0,13} + 9 R{4,4} + 9 R{4,6} + 9 R{4,14} + 9 R{4,25}
   + 9 R{4,27} + 9 R{6,4} + 9 R{6,6} + 9 R{6,9} + 9 R{6,11} + 9 R{6,16}
   + 9 R{6,21} + 9 R{6,27} + 9 R{6,29} + 9 R{6,31} + 9 R{6,32} + 9 R{6,33}
   <= 9
 R2_47: 7 R{5,1} + 7 R{5,2} + 7 R{5,3} + 7 R{5,4} + 7 R{5,6} + 7 R{5,12}
   + 7 R{5,14} + 7 R{5,16} <= 7
 R2_48: 4 R{4,1} + 4 R{4,2} + 4 R{4,3} + 4 R{4,4} + 4 R{4,5} + 4 R{4,6}
   + 4 R{4,7} + 4 R{4,8} + 4 R{4,9} + 4 R{4,10} + 4 R{4,11} + 4 R{4,12}
   + 4 R{4,14} + 4 R{4,15} + 4 R{4,16} + 4 R{4,17} + 4 R{4,18} + 4 R{4,19}
   + 4 R{4,20} + 4 R{4,21} + 4 R{4,22} + 4 R{4,23} + 4 R{4,24} + 4 R{4,25}
   + 4 R{4,26} + 4 R{4,27} <= 4
 R2_49: <= 0
 R2_50: <= 0
 R2_51: 11 R{0,7} + 11 R{0,9} + 11 R{0,12} + 11 R{0,14} + 11 R{0,20}
   + 11 R{3,11} + 11 R{4,1} + 11 R{4,4} + 11 R{4,6} + 11 R{4,8}
   + 11 R{4,14} + 11 R{4,15} + 11 R{4,23} + 11 R{4,25} <= 11
 R2_52: 10 R{4,13} + 10 R{4,21} <= 10
 R2_53: 13 R{4,1} + 13 R{4,2} + 13 R{4,4} + 13 R{4,6} + 13 R{4,7}
   + 13 R{4,8} + 13 R{4,9} + 13 R{4,14} + 13 R{4,24} + 13 R{4,25}
   + 13 R{4,27} <= 13
 R2_54: 9 R{2,22} + 9 R{3,1} + 9 R{3,2} + 9 R{3,5} + 9 R{3,7} + 9 R{3,8}
   + 9 R{3,9} + 9 R{3,11} + 9 R{3,13} + 9 R{3,15} + 9 R{3,17} + 9 R{3,20}
   + 9 R{3,21} + 9 R{3,22} + 9 R{3,23} <= 9
 R2_55: 8 R{1,17} + 8 R{3,13} + 8 R{6,1} + 8 R{6,2} + 8 R{6,3} + 8 R{6,4}
   + 8 R{6,5} + 8 R{6,8} + 8 R{6,9} + 8 R{6,11} + 8 R{6,12} + 8 R{6,16}
   + 8 R{6,17} + 8 R{6,18} + 8 R{6,19} + 8 R{6,20} + 8 R{6,21} + 8 R{6,22}
   + 8 R{6,25} + 8 R{6,26} + 8 R{6,28} + 8 R{6,31} + 8 R{6,33} <= 8
 R2_56: 6 R{0,7} + 6 R{0,9} + 6 R{0,10} + 6 R{0,15} + 6 R{0,18} + 6 R{0,22}
   + 6 R{2,0} + 6 R{2,1} + 6 R{2,7} + 6 R{2,13} + 6 R{2,19} + 6 R{4,3}
   + 6 R{4,11} + 6 R{4,17} + 6 R{4,19} + 6 R{4,22} + 6 R{6,2} + 6 R{6,3}
   + 6 R{6,5} + 6 R{6,6} + 6 R{6,7} + 6 R{6,8} + 6 R{6,12} + 6 R{6,18}
   + 6 R{6,19} + 6 R{6,20} + 6 R{6,23} + 6 R{6,25} + 6 R{6,27} + 6 R{6,32}
   <= 6
 R2_57: <= 0
 R2_58: <= 0
 R2_59: 10 R{0,6} + 10 R{0,13} + 10 R{2,8} + 10 R{2,15} + 10 R{4,5}
   + 10 R{4,20} + 10 R{4,21} + 10 R{4,23} + 10 R{6,8} + 10 R{6,10}
   + 10 R{6,14} + 10 R{6,15} + 10 R{6,22} + 10 R{6,23} + 10 R{6,30}
   + 10 R{6,31} <= 10
 R2_60: <= 0
 R2_61: 9 R{0,6} + 9 R{2,11} + 9 R{2,22} + 9 R{4,13} + 9 R{4,15}
   + 9 R{4,26} + 9 R{6,12} + 9 R{6,18} + 9 R{6,20} <= 9
 R2_62: <= 0
 R2_63: <= 0
 R2_64: <= 0
 R2_65: 5 R{0,19} + 5 R{2,0} + 5 R{2,1} + 5 R{2,11} + 5 R{2,16} + 5 R{2,19}
   + 5 R{2,20} + 5 R{2,22} + 5 R{4,26} + 5 R{6,1} + 5 R{6,2} + 5 R{6,3}
   + 5 R{6,4} + 5 R{6,6} + 5 R{6,7} + 5 R{6,9} + 5 R{6,10} + 5 R{6,11}
   + 5 R{6,13} + 5 R{6,14} + 5 R{6,15} + 5 R{6,17} + 5 R{6,19} + 5 R{6,24}
   + 5 R{6,27} + 5 R{6,30} + 5 R{6,32} + 5 R{6,33} <= 5
 R2_66: 7 R{2,13} + 7 R{2,14} + 7 R{3,4} + 7 R{5,8} + 7 R{6,1} + 7 R{6,2}
   + 7 R{6,3} + 7 R{6,4} + 7 R{6,5} + 7 R{6,6} + 7 R{6,7} + 7 R{6,8}
   + 7 R{6,9} + 7 R{6,11} + 7 R{6,12} + 7 R{6,16} + 7 R{6,17} + 7 R{6,19}
   + 7 R{6,22} + 7 R{6,25} + 7 R{6,27} + 7 R{6,29} + 7 R{6,31} + 7 R{6,33}
   <= 7
 R2_67: 3 R{0,1} + 3 R{0,2} + 3 R{0,8} + 3 R{2,0} + 3 R{2,1} + 3 R{2,7}
   + 3 R{2,11} + 3 R{2,16} + 3 R{2,19} + 3 R{2,20} + 3 R{2,21} + 3 R{4,13}
   + 3 R{4,19} + 3 R{6,3} + 3 R{6,6} + 3 R{6,7} + 3 R{6,9} + 3 R{6,10}
   + 3 R{6,11} + 3 R{6,13} + 3 R{6,15} + 3 R{6,17} + 3 R{6,19} + 3 R{6,23}
   + 3 R{6,24} + 3 R{6,26} + 3 R{6,27} + 3 R{6,28} + 3 R{6,30} + 3 R{6,32}
   <= 3
 R2_68: 6 R{0,11} + 6 R{0,17} + 6 R{1,1} + 6 R{1,2} + 6 R{1,3} + 6 R{1,4}
   + 6 R{1,7} + 6 R{1,12} + 6 R{1,13} + 6 R{1,14} + 6 R{1,15} + 6 R{1,17}
   + 6 R{2,10} + 6 R{2,17} + 6 R{3,14} + 6 R{6,10} + 6 R{6,13} + 6 R{6,14}
   + 6 R{6,15} + 6 R{6,23} + 6 R{6,24} + 6 R{6,26} + 6 R{6,30} <= 6
 R2_69: 7 R{0,19} + 7 R{1,6} + 7 R{1,9} + 7 R{1,16} + 7 R{3,7} + 7 R{3,10}
   + 7 R{3,18} + 7 R{4,1} + 7 R{4,2} + 7 R{4,3} + 7 R{4,4} + 7 R{4,5}
   + 7 R{4,6} + 7 R{4,7} + 7 R{4,8} + 7 R{4,10} + 7 R{4,11} + 7 R{4,12}
   + 7 R{4,13} + 7 R{4,14} + 7 R{4,15} + 7 R{4,16} + 7 R{4,17} + 7 R{4,19}
   + 7 R{4,20} + 7 R{4,21} + 7 R{4,23} + 7 R{4,26} + 7 R{4,27} + 7 R{6,26}
   <= 7
 R2_70: 11 R{1,1} + 11 R{1,2} + 11 R{1,8} + 11 R{1,13} <= 11
 R2_71: 7 R{0,17} + 7 R{1,4} + 7 R{1,5} + 7 R{1,6} + 7 R{1,7} + 7 R{1,8}
   + 7 R{1,10} + 7 R{1,16} + 7 R{1,18} + 7 R{2,13} + 7 R{3,21} + 7 R{3,22}
   + 7 R{4,24} + 7 R{6,1} + 7 R{6,2} + 7 R{6,3} + 7 R{6,4} + 7 R{6,5}
   + 7 R{6,6} + 7 R{6,7} + 7 R{6,8} + 7 R{6,9} + 7 R{6,10} + 7 R{6,11}
   + 7 R{6,12} + 7 R{6,13} + 7 R{6,14} + 7 R{6,15} + 7 R{6,17} + 7 R{6,19}
   + 7 R{6,23} + 7 R{6,24} + 7 R{6,27} + 7 R{6,30} + 7 R{6,33} <= 7
 R2_72: <= 0
 R2_73: <= 0
 R2_74: 5 R{5,1} + 5 R{5,4} + 5 R{5,16} <= 5
 R2_75: 8 R{6,1} + 8 R{6,2} + 8 R{6,3} + 8 R{6,5} + 8 R{6,6} + 8 R{6,7}
   + 8 R{6,12} + 8 R{6,17} + 8 R{6,19} + 8 R{6,22} + 8 R{6,25} + 8 R{6,26}
   + 8 R{6,27} + 8 R{6,28} + 8 R{6,32} <= 8
 R2_76: 12 R{0,4} + 12 R{0,5} + 12 R{0,7} + 12 R{0,9} + 12 R{0,10}
   + 12 R{0,11} + 12 R{0,12} + 12 R{0,14} + 12 R{0,15} + 12 R{0,17}
   + 12 R{0,18} + 12 R{0,20} + 12 R{0,22} + 12 R{3,8} + 12 R{5,4}
   + 12 R{5,7} + 12 R{5,11} + 12 R{6,7} + 12 R{6,10} + 12 R{6,12}
   + 12 R{6,14} + 12 R{6,18} <= 12
 R2_77: 7 R{0,5} + 7 R{0,21} + 7 R{1,2} + 7 R{1,8} + 7 R{1,10} + 7 R{1,18}
   + 7 R{2,4} + 7 R{2,5} + 7 R{4,2} + 7 R{4,3} + 7 R{4,5} + 7 R{4,9}
   + 7 R{4,16} + 7 R{4,17} + 7 R{4,18} + 7 R{4,19} + 7 R{4,24} + 7 R{4,27}
   + 7 R{5,2} + 7 R{5,5} + 7 R{5,10} + 7 R{5,14} + 7 R{6,21} <= 7
Bounds
End
